c read Graph
c width = 276
c time = 388 ms
c width = 23
c time = 631 ms
c width = 22
c time = 1168 ms
c width = 21
c time = 1973 ms
c width = 20
c time = 2225 ms
c width = 19
c time = 7135 ms
c width = 18
c time = 8689 ms
c width = 17
c time = 229894 ms
c width = 16
c time = 235480 ms
c width = 16
c time = 299874 ms
s td 436 17 534
b 1 97 222 534
b 2 62 533 534
b 3 30 495
b 4 111 495 496
b 5 137 496 497
b 6 37 419
b 7 220 223
b 8 170 417 493 494
b 9 185 380 381 499
b 10 141 225 226 420
b 11 133 226 227 228
b 12 171 232 233 237
b 13 112 237 238 239
b 14 94 239 240 241
b 15 18 243 244 246
b 16 142 246 247 248
b 17 81 252 253 259
b 18 127 259 260 265
b 19 215 268 269 271
b 20 129 271 272 273
b 21 143 274 275 278
b 22 79 278 279 285
b 23 95 285 286 287
b 24 14 287 288 294
b 25 138 296 297 298
b 26 25 302 303 305
b 27 35 311 312 313
b 28 1 314 315 316
b 29 86 316 317 318
b 30 104 318 319 320
b 31 174 320 321 323
b 32 99 324 325 326
b 33 48 327 328 330
b 34 9 330 331 332
b 35 165 333 334 335
b 36 107 336 337 338
b 37 128 338 339 342
b 38 72 342 343 344
b 39 122 344 345 347
b 40 150 347 348 355
b 41 52 356 357 359
b 42 130 361 362 363
b 43 65 363 364 366
b 44 204 366 367 368
b 45 175 369 370 371
b 46 68 371 372 374
b 47 161 374 375 380
b 48 380 381 385 499
b 49 188 386 387 390
b 50 184 390 391 393
b 51 187 400 401 405
b 52 29 405 406 409
b 53 39 412 413 414
b 54 158 499 500 502
b 55 48 504 505 509
b 56 12 511 512 517
b 57 39 517 518 519
b 58 178 519 520 521
b 59 195 521 522 523
b 60 203 524 525 526
b 61 35 53 530 531
b 62 71 416 417 527 528
b 63 48 191 231 259 278 309 335 380 390 416 417 440 489 502 526 527 528
b 64 48 191 231 259 278 309 335 374 380 390 416 440 488 489 502 526 527
b 65 48 191 231 259 278 308 309 335 374 390 416 440 487 488 502 526 527
b 66 48 191 231 259 278 285 287 308 335 374 390 416 440 487 502 526 527
b 67 48 79 191 231 259 278 285 287 308 335 374 390 416 440 487 502 526
b 68 48 79 191 231 259 287 307 308 335 374 390 416 440 487 502 524 526
b 69 48 79 191 231 259 287 307 335 371 374 390 416 440 487 502 523 524
b 70 68 371 374 523 524
b 71 48 79 191 231 259 287 307 335 371 390 415 416 440 487 502 521 523
b 72 48 79 191 231 259 287 307 335 371 390 414 415 440 486 487 502 521
b 73 92 414 415 486 487
b 74 48 79 191 231 259 287 307 335 336 371 390 414 440 486 502 519 521
b 75 48 79 191 231 259 287 307 336 371 390 412 414 440 486 502 517 519
b 76 39 412 414 517 519
b 77 48 79 191 231 232 259 287 307 336 371 390 412 440 486 502 511 517
b 78 48 79 191 232 237 259 287 307 336 371 390 412 440 442 486 502 511
b 79 79 232 237 440 441 442
b 80 171 232 237 440 441
b 81 48 191 237 259 287 307 336 342 371 390 394 412 442 445 486 502 511
b 82 184 191 336 342 390 394 442 445
b 83 184 191 390 393 394
b 84 184 336 338 342 442 444 445
b 85 184 336 338 442 443 444
b 86 107 336 338 442 443
b 87 128 338 342 444 445
b 88 48 237 252 259 287 305 307 342 368 371 394 412 445 481 486 502 511
b 89 48 237 252 287 305 342 368 394 411 412 445 474 480 481 502 511
b 90 48 237 250 252 287 301 305 342 363 368 394 411 445 474 480 502 511
b 91 250 252 301 305 363 368 474 475 479 480
b 92 250 252 301 302 305 475 476 479
b 93 190 301 302 475 476
b 94 250 251 252 302 305 476 478 479
b 95 152 251 252 478 479
b 96 250 251 302 305 476 477 478
b 97 25 302 305 477 478
b 98 125 250 251 476 477
b 99 363 366 368 474 475 479 480
b 100 65 363 366 474 475
b 101 204 366 368 479 480
b 102 48 237 250 287 301 342 363 394 411 445 474 502 504 511
b 103 48 237 248 250 287 301 342 363 394 409 411 445 472 474 502 504 511
b 104 48 248 249 250 409 410 411 472 474 504 511
b 105 248 249 409 410 472 473 474
b 106 210 409 410 473 474
b 107 151 248 249 472 473
b 108 48 249 250 410 411 504 509 511
b 109 249 250 410 411 509 510 511
b 110 199 249 250 510 511
b 111 73 410 411 509 510
b 112 219 411 412 480 481
b 113 252 259 305 307 368 371 481 483 486
b 114 305 306 307 481 482 483
b 115 8 306 307 482 483
b 116 38 305 306 481 482
b 117 252 259 368 371 483 484 485 486
b 118 368 369 371 483 484 485 486
b 119 88 368 369 485 486
b 120 175 369 371 483 484
b 121 81 252 259 484 485
b 122 12 231 232 511 517
b 123 178 335 336 519 521
b 124 195 415 416 521 523
b 125 203 307 308 524 526
b 126 95 285 287 526 527
b 127 148 308 309 487 488
b 128 161 374 380 488 489
b 129 48 191 231 259 267 278 309 335 380 390 417 428 434 440 489 502 528
b 130 267 278 380 390 428 434 440 489 502 528
b 131 48 191 231 259 267 309 310 313 335 417 428 434 440 489 490 528 529
b 132 35 191 310 313 489 490 529
b 133 35 191 310 313 529 530
b 134 35 310 311 313 530
b 135 35 53 310 311 530
b 136 48 231 259 265 267 309 310 313 320 335 417 428 434 440 490 528 529
b 137 127 259 265 313 320 417 490
b 138 127 313 320 417 490 491
b 139 313 316 320 417 491 493
b 140 313 314 316 491 492 493
b 141 144 313 314 491 492
b 142 1 314 316 492 493
b 143 316 320 417 493 494
b 144 48 231 265 267 309 310 320 332 335 428 434 438 440 528 529
b 145 332 333 335 438 439 440
b 146 165 333 335 439 440
b 147 166 332 333 438 439
b 148 48 231 265 266 267 309 310 320 323 330 332 424 428 434 438 528 529
b 149 228 231 265 266 309 310 320 323 330 332 422 423 424 434 438 528 529
b 150 228 229 231 265 266 309 310 330 332 422 423 434 435 438 528 529
b 151 42 228 229 434 435
b 152 229 231 265 266 309 310 330 332 422 423 435 438 528 529
b 153 229 231 265 266 330 332 422 423 435 438 528 529
b 154 229 230 231 265 266 330 332 422 423 435 436 437 438
b 155 28 229 230 231 265 266 330 332 422 423 435 436 437 438
b 156 11 229 230 231 330 332 435 436 437 438
b 157 9 229 230 330 332 435 436 437
b 158 6 229 230 435 436
b 159 31 309 310 528 529
b 160 226 228 320 323 422 423 424
b 161 174 226 320 323 422
b 162 133 226 228 423 424
b 163 48 266 267 323 327 330 424 428
b 164 266 267 323 324 327 424 426 428
b 165 266 267 323 324 424 425 426
b 166 193 266 267 425 426
b 167 93 323 324 424 425
b 168 324 326 327 426 427 428
b 169 99 324 326 426 427
b 170 135 326 327 427 428
b 171 158 267 278 380 390 428 432 434 502
b 172 158 380 385 390 432 434 502
b 173 70 188 385 390 432 434
b 174 70 188 385 386 390
b 175 70 188 432 433 434
b 176 158 380 385 499 502
b 177 158 267 268 278 428 432
b 178 268 274 278 428 431 432
b 179 268 273 274 428 430 431
b 180 119 273 274 430 431
b 181 268 271 273 428 429 430
b 182 215 268 271 428 429
b 183 129 271 273 429 430
b 184 143 274 278 431 432
b 185 94 239 243 449 450 458 460
b 186 237 239 243 394 397 445 449 450 458 460
b 187 237 243 342 355 394 397 405 445 450 452 453 458 460
b 188 237 243 246 287 294 342 355 394 405 409 445 452 453 460 461 502 503
b 189 237 246 248 287 294 301 342 355 363 394 409 445 461 472 502 503 504
b 190 237 246 287 294 342 355 394 409 445 461 472 502 503 504
b 191 342 347 355 397 400 405 450 452 453 456 458
b 192 342 347 397 400 450 452 453 455 456
b 193 342 344 347 453 454 455
b 194 122 344 347 454 455
b 195 72 342 344 453 454
b 196 397 399 400 450 452 455 456
b 197 153 182 397 399 450 452
b 198 153 182 397 398 399
b 199 153 182 450 451 452
b 200 202 399 400 455 456
b 201 347 355 400 405 456 457 458
b 202 187 400 405 457 458
b 203 150 347 355 456 457
b 204 237 239 394 397 445 446 449
b 205 112 237 239 445 446
b 206 394 396 397 446 447 449
b 207 394 395 396 447 448 449
b 208 201 395 396 447 448
b 209 207 394 395 448 449
b 210 117 396 397 446 447
b 211 94 239 242 243 458 459 460
b 212 94 239 241 242 458 459
b 213 136 241 242 458 459
b 214 140 242 243 459 460
b 215 246 248 294 301 355 359 363 461 463 472 503 504
b 216 246 248 355 359 461 462 463 503 504
b 217 355 356 359 461 462 503 504
b 218 51 355 356 461 462
b 219 52 356 359 503 504
b 220 142 246 248 462 463
b 221 294 300 301 359 361 363 463 470 472
b 222 294 298 300 359 361 463 466 470
b 223 294 295 298 463 464 466
b 224 295 296 298 464 465 466
b 225 75 295 296 465 466
b 226 138 296 298 464 465
b 227 126 294 295 463 464
b 228 298 300 359 361 466 468 470
b 229 298 299 300 468 469 470
b 230 7 299 300 468 469
b 231 212 298 299 469 470
b 232 359 360 361 466 467 468
b 233 60 360 361 466 467
b 234 76 359 360 467 468
b 235 300 301 361 363 470 471 472
b 236 43 300 301 471 472
b 237 130 361 363 470 471
b 238 29 243 246 287 294 405 409 452 453 460 461 502 503
b 239 18 243 246 287 294 452 453 460 461
b 240 14 287 294 452 453
b 241 174 226 420 421 422
b 242 141 226 420 421 422
b 243 104 316 318 320 494
b 244 86 104 316 318 494
b 245 2 525 526
b 246 173 522 523
b 247 16 520 521
b 248 82 518 519
b 249 4 516 517
b 250 512 516 517
b 251 179 515 516
b 252 512 515 516
b 253 96 514 515
b 254 512 514 515
b 255 74 513 514
b 256 512 513 514
b 257 168 512 513
b 258 33 508 509
b 259 505 508 509
b 260 102 507 508
b 261 505 507 508
b 262 154 506 507
b 263 505 506 507
b 264 114 505 506
b 265 209 501 502
b 266 500 501 502
b 267 189 500 501
b 268 34 413 414
b 269 145 408 409
b 270 406 408 409
b 271 121 407 408
b 272 406 407 408
b 273 89 406 407
b 274 109 404 405
b 275 401 404 405
b 276 100 403 404
b 277 401 403 404
b 278 23 402 403
b 279 401 402 403
b 280 164 401 402
b 281 63 392 393
b 282 391 392 393
b 283 197 391 392
b 284 77 389 390
b 285 387 389 390
b 286 90 388 389
b 287 387 388 389
b 288 80 387 388
b 289 45 384 385
b 290 381 384 385
b 291 13 383 384
b 292 381 383 384
b 293 84 382 383
b 294 381 382 383
b 295 115 381 382
b 296 85 379 380
b 297 375 379 380
b 298 194 378 379
b 299 375 378 379
b 300 156 377 378
b 301 375 377 378
b 302 32 376 377
b 303 375 376 377
b 304 59 375 376
b 305 87 373 374
b 306 372 373 374
b 307 217 372 373
b 308 61 370 371
b 309 40 367 368
b 310 123 365 366
b 311 364 365 366
b 312 198 364 365
b 313 66 362 363
b 314 10 358 359
b 315 357 358 359
b 316 110 357 358
b 317 211 354 355
b 318 348 354 355
b 319 181 353 354
b 320 348 353 354
b 321 176 352 353
b 322 348 352 353
b 323 149 351 352
b 324 348 351 352
b 325 20 350 351
b 326 348 350 351
b 327 49 349 350
b 328 348 349 350
b 329 5 348 349
b 330 47 346 347
b 331 345 346 347
b 332 113 345 346
b 333 58 343 344
b 334 155 341 342
b 335 339 341 342
b 336 17 340 341
b 337 339 340 341
b 338 78 339 340
b 339 98 337 338
b 340 200 334 335
b 341 69 331 332
b 342 134 329 330
b 343 328 329 330
b 344 54 328 329
b 345 132 325 326
b 346 206 322 323
b 347 321 322 323
b 348 83 321 322
b 349 147 319 320
b 350 108 317 318
b 351 46 315 316
b 352 205 312 313
b 353 172 304 305
b 354 303 304 305
b 355 213 303 304
b 356 131 297 298
b 357 162 293 294
b 358 288 293 294
b 359 55 292 293
b 360 288 292 293
b 361 101 291 292
b 362 288 291 292
b 363 192 290 291
b 364 288 290 291
b 365 160 289 290
b 366 288 289 290
b 367 196 288 289
b 368 57 286 287
b 369 157 284 285
b 370 279 284 285
b 371 214 283 284
b 372 279 283 284
b 373 139 282 283
b 374 279 282 283
b 375 27 281 282
b 376 279 281 282
b 377 105 280 281
b 378 279 280 281
b 379 180 279 280
b 380 124 277 278
b 381 275 277 278
b 382 159 276 277
b 383 275 276 277
b 384 146 275 276
b 385 116 272 273
b 386 103 270 271
b 387 269 270 271
b 388 64 269 270
b 389 169 264 265
b 390 260 264 265
b 391 91 263 264
b 392 260 263 264
b 393 183 262 263
b 394 260 262 263
b 395 186 261 262
b 396 260 261 262
b 397 106 260 261
b 398 221 258 259
b 399 253 258 259
b 400 167 257 258
b 401 253 257 258
b 402 3 256 257
b 403 253 256 257
b 404 21 255 256
b 405 253 255 256
b 406 26 254 255
b 407 253 254 255
b 408 24 253 254
b 409 15 247 248
b 410 216 245 246
b 411 244 245 246
b 412 177 244 245
b 413 118 240 241
b 414 218 238 239
b 415 67 236 237
b 416 233 236 237
b 417 44 235 236
b 418 233 235 236
b 419 41 234 235
b 420 233 234 235
b 421 36 233 234
b 422 22 227 228
b 423 120 225 420
b 424 185 498 499
b 425 208 498 499
b 426 185 497 498
b 427 56 417 418
b 428 170 417 418
b 429 163 170 418
b 430 120 419 420
b 431 50 224 225
b 432 120 224 225
b 433 120 223 224
b 434 19 531 532
b 435 35 531 532
b 436 35 532 533
1 2
2 436
3 4
4 5
5 426
6 430
7 433
8 428
8 143
9 424
9 48
10 423
10 242
11 422
11 162
12 416
12 80
13 414
13 205
14 413
14 212
15 411
15 239
16 409
16 220
17 399
17 121
18 390
18 137
19 387
19 182
20 385
20 183
21 381
21 184
22 370
22 67
23 368
23 126
24 358
24 240
25 356
25 226
26 354
26 97
27 352
27 134
28 351
28 142
29 350
29 244
30 349
30 243
31 347
31 161
32 345
32 169
33 343
33 163
34 341
34 157
35 340
35 146
36 339
36 86
37 335
37 87
38 333
38 195
39 331
39 194
40 318
40 203
41 315
41 219
42 313
42 237
43 311
43 100
44 309
44 101
45 308
45 120
46 306
46 70
47 297
47 128
48 290
48 176
49 285
49 174
50 282
50 83
51 275
51 202
52 270
52 238
53 268
53 76
54 266
54 176
55 259
55 108
56 250
56 122
57 248
57 76
58 247
58 123
59 246
59 124
60 245
60 125
61 435
61 135
62 63
63 129
63 64
64 128
64 65
65 127
65 66
66 126
66 67
67 68
68 125
68 69
69 71
69 70
71 124
71 72
72 74
72 73
74 123
74 75
75 77
75 76
77 122
77 78
78 81
78 79
79 80
81 88
81 82
82 83
82 84
84 87
84 85
85 86
88 113
88 89
89 112
89 90
90 102
90 91
91 92
91 99
92 93
92 94
94 95
94 96
96 97
96 98
99 100
99 101
102 103
103 189
103 104
104 108
104 105
105 107
105 106
108 109
109 111
109 110
113 114
113 117
114 116
114 115
117 118
117 121
118 119
118 120
129 131
129 171
129 130
131 136
131 132
132 133
133 134
134 135
136 137
136 144
137 138
138 139
139 143
139 140
140 141
140 142
143 243
144 145
144 148
145 146
145 147
148 149
148 163
149 160
149 150
150 152
150 151
152 159
152 153
153 154
154 155
155 156
156 157
157 158
160 161
160 162
161 241
163 164
164 168
164 165
165 166
165 167
168 170
168 169
171 172
171 177
172 173
172 176
173 175
173 174
177 178
178 179
178 184
179 180
179 181
181 183
181 182
185 211
185 186
186 204
186 187
187 191
187 188
188 238
188 190
189 215
189 190
191 192
191 201
192 193
192 196
193 195
193 194
196 200
196 197
197 199
197 198
201 202
201 203
204 205
204 206
206 207
206 210
207 208
207 209
211 214
211 212
212 213
215 221
215 216
216 220
216 217
217 218
217 219
221 235
221 222
222 228
222 223
223 224
223 227
224 225
224 226
228 232
228 229
229 231
229 230
232 233
232 234
235 237
235 236
238 239
239 240
241 242
243 244
249 250
250 252
251 252
252 254
253 254
254 256
255 256
256 257
258 259
259 261
260 261
261 263
262 263
263 264
265 266
266 267
269 270
270 272
271 272
272 273
274 275
275 277
276 277
277 279
278 279
279 280
281 282
282 283
284 285
285 287
286 287
287 288
289 290
290 292
291 292
292 294
293 294
294 295
296 297
297 299
298 299
299 301
300 301
301 303
302 303
303 304
305 306
306 307
310 311
311 312
314 315
315 316
317 318
318 320
319 320
320 322
321 322
322 324
323 324
324 326
325 326
326 328
327 328
328 329
330 331
331 332
334 335
335 337
336 337
337 338
342 343
343 344
346 347
347 348
353 354
354 355
357 358
358 360
359 360
360 362
361 362
362 364
363 364
364 366
365 366
366 367
369 370
370 372
371 372
372 374
373 374
374 376
375 376
376 378
377 378
378 379
380 381
381 383
382 383
383 384
386 387
387 388
389 390
390 392
391 392
392 394
393 394
394 396
395 396
396 397
398 399
399 401
400 401
401 403
402 403
403 405
404 405
405 407
406 407
407 408
410 411
411 412
415 416
416 418
417 418
418 420
419 420
420 421
423 432
423 430
424 426
424 425
427 428
428 429
431 432
432 433
434 435
435 436
